solution status: optimal solution found
objective value:                                    0
$_2_y                                              -3 	(obj:0)
$_2_z                                              11 	(obj:0)
$_6_y                                              -2 	(obj:0)
$_6_z                                              11 	(obj:0)
$_21_y                                             -1 	(obj:0)
$_21_z                                             17 	(obj:0)
$_5_y                                              -4 	(obj:0)
$_5_z                                              15 	(obj:0)
$_10_y                                             -5 	(obj:0)
$_10_z                                             14 	(obj:0)
$_4_y                                              -4 	(obj:0)
$_4_z                                              13 	(obj:0)
$_8_y                                              -2 	(obj:0)
$_8_z                                              15 	(obj:0)
$_7_y                                              -4 	(obj:0)
$_7_z                                              16 	(obj:0)
$_9_y                                              -5 	(obj:0)
$_9_z                                              13 	(obj:0)
$_3_y                                              -3 	(obj:0)
$_3_z                                              12 	(obj:0)
